TYPE : Vertex Cover
DIMENSION: 24
EDGE_DATA_SECTION:
0 6
0 8
0 15
0 16
0 17
0 21
1 2
1 10
1 21
1 22
2 8
2 13
2 15
2 22
3 11
3 14
3 21
4 5
4 8
4 18
5 8
5 11
5 15
5 16
6 11
6 22
7 8
7 12
7 13
7 18
7 22
8 12
8 21
9 12
9 15
9 17
9 21
10 13
10 15
10 18
10 20
11 18
12 17
13 14
13 18
14 17
14 22
15 17
15 23
17 23
18 20
19 23
20 21
20 22
20 23
21 22
21 23
22 23
-1
VERTEX_DEGREE:
6.0 4.0 5.0 3.0 3.0 5.0 3.0 5.0 7.0 4.0 5.0 4.0 4.0 5.0 4.0 7.0 2.0 6.0 6.0 1.0 5.0 8.0 8.0 6.0
VERTEX_COVER:
0 2 5 7 8 9 10 11 14 17 18 21 22 23
EOF
